NAME : mtspf.pid10724.gtsp.80530733.tour
COMMENT : Length = 80530733
COMMENT : Found by LKH [Keld Helsgaun] Mon Mar  3 08:17:58 2025
TYPE : TOUR
DIMENSION : 45
TOUR_SECTION
1
4
13
10
11
12
9
6
7
8
18
19
20
21
36
37
34
35
38
39
40
41
26
27
28
29
15
16
17
14
22
23
24
25
3
45
42
43
44
2
5
32
33
30
31
-1
EOF
